solution status: optimal solution found
objective value:                             -607.207
x4200                                               1 	(obj:-10)
x5700                                               1 	(obj:-10)
x36200                                              1 	(obj:-11.2)
x41900                                              1 	(obj:-11.2)
x1101                                               1 	(obj:-20)
x32501                                              1 	(obj:-19.8)
x35501                                              1 	(obj:-5.68)
x10202                                              1 	(obj:-35)
x22902                                              1 	(obj:-4.114)
x17803                                              1 	(obj:-24)
y3300                                               1 	(obj:0)
y18200                                              1 	(obj:0)
y1001                                               1 	(obj:0)
y17601                                              1 	(obj:0)
y5602                                               1 	(obj:0)
y25602                                              1 	(obj:0)
y13203                                              1 	(obj:0)
y23403                                              1 	(obj:0)
y1204                                               1 	(obj:0)
y11904                                              1 	(obj:0)
y8905                                               1 	(obj:0)
y16505                                              1 	(obj:0)
y5606                                               1 	(obj:0)
y23206                                              1 	(obj:0)
y13107                                              1 	(obj:0)
y26207                                              1 	(obj:0)
y11708                                              1 	(obj:0)
y25208                                              1 	(obj:0)
y12509                                              1 	(obj:0)
y12609                                              1 	(obj:0)
y18110                                              1 	(obj:0)
y33010                                              1 	(obj:0)
y5611                                               1 	(obj:0)
y8911                                               1 	(obj:0)
y23412                                              1 	(obj:0)
y24012                                              1 	(obj:0)
y8613                                               1 	(obj:0)
y16713                                              1 	(obj:0)
y2314                                               1 	(obj:0)
y3114                                               1 	(obj:0)
y1815                                               1 	(obj:0)
y14115                                              1 	(obj:0)
y1816                                               1 	(obj:0)
y8916                                               1 	(obj:0)
y1817                                               1 	(obj:0)
y22217                                              1 	(obj:0)
y0718                                               1 	(obj:0)
y4918                                               1 	(obj:0)
y7119                                               1 	(obj:0)
y22419                                              1 	(obj:0)
y22320                                              1 	(obj:0)
y26920                                              1 	(obj:0)
y34521                                              1 	(obj:0)
y17922                                              1 	(obj:0)
y22522                                              1 	(obj:0)
y4223                                               1 	(obj:0)
y8323                                               1 	(obj:0)
x25804                                         0.6285 	(obj:-40)
x14205                              0.460666666666667 	(obj:-30)
x32305                              0.305050505050505 	(obj:-19.8)
x37505                                              1 	(obj:-19.8)
x17306                                              1 	(obj:-24)
x19406                                          0.935 	(obj:-24)
x27807                                          0.556 	(obj:-40)
x33307                                              1 	(obj:-13.92)
x22308                                           0.56 	(obj:-21)
x25608                                              1 	(obj:-30)
x26709                                           0.19 	(obj:-18)
x27209                                              1 	(obj:-18)
x27309                                              1 	(obj:-18)
x34410                              0.650251256281407 	(obj:-19.9)
x36110                                              1 	(obj:-16.4)
x7711                                               1 	(obj:-35)
x15311                              0.397333333333333 	(obj:-30)
x18712                                              1 	(obj:-12)
x20012                              0.238666666666666 	(obj:-30)
x20212                                              1 	(obj:-30)
x13613                             0.0371428571428569 	(obj:-35)
x14413                                              1 	(obj:-35)
x32613                                              1 	(obj:-19.8)
x2914                                               1 	(obj:-20)
x3814                                           0.248 	(obj:-30)
x9614                                               1 	(obj:-30)
x2315                                          0.4855 	(obj:-40)
x29215                                              1 	(obj:-40)
x14216                              0.539333333333333 	(obj:-30)
x14316                                              1 	(obj:-30)
x15316                              0.602666666666667 	(obj:-30)
x1217                                               1 	(obj:-30)
x2317                                           0.194 	(obj:-40)
x7617                                               1 	(obj:-30)
x0818                                               1 	(obj:-10)
x1618                                               1 	(obj:-10)
x6718                                               1 	(obj:-40)
x5319                                               1 	(obj:-20)
x10019                                              1 	(obj:-30)
x3220                               0.718787878787879 	(obj:-33)
x5420                                               1 	(obj:-33)
x36420                                              1 	(obj:-19.9)
x14021                              0.898888888888889 	(obj:-36)
x15121                                              1 	(obj:-36)
x10122                                              1 	(obj:-30)
x35822                                              1 	(obj:-23.8)
x5523                                               1 	(obj:-30)
x13123                                              1 	(obj:-30)
z00                                                 1 	(obj:21.2)
z01                                                 1 	(obj:22.74)
z02                                 0.999846625766879 	(obj:19.56)
z03                                                 1 	(obj:19.83)
z04                                                 1 	(obj:22.57)
z05                                                 1 	(obj:19.83)
z06                                                 1 	(obj:23.22)
z07                                                 1 	(obj:18.08)
z08                                                 1 	(obj:20.88)
z09                                                 1 	(obj:19.71)
z10                                                 1 	(obj:14.67)
z11                                                 1 	(obj:23.46)
z12                                                 1 	(obj:24.58)
z13                                                 1 	(obj:28.05)
z14                                                 1 	(obj:28.72)
z15                                                 1 	(obj:29.71)
z16                                                 1 	(obj:32.13)
z17                                                 1 	(obj:33.88)
z18                                 0.829875518672199 	(obj:36.15)
z19                                 0.668091929449492 	(obj:37.42)
z20                                                 1 	(obj:38.31)
z21                                                 1 	(obj:34.18)
z22                                  0.73962056640088 	(obj:36.37)
z23                                 0.819672131147541 	(obj:36.6)
a                                             607.207 	(obj:0)
x27903                                         0.3915 	(obj:-40)
x1504                                               1 	(obj:-20)
